solution status: optimal solution found
objective value:                                    0
$_74_y                                             21 	(obj:0)
$_74_z                                             19 	(obj:0)
$_5_y                                              24 	(obj:0)
$_5_z                                              21 	(obj:0)
$_49_y                                             21 	(obj:0)
$_49_z                                             20 	(obj:0)
$_47_y                                             22 	(obj:0)
$_47_z                                             19 	(obj:0)
$_29_y                                             24 	(obj:0)
$_29_z                                             22 	(obj:0)
$_31_y                                             25 	(obj:0)
$_31_z                                             21 	(obj:0)
$_17_y                                             22 	(obj:0)
$_17_z                                             24 	(obj:0)
$_18_y                                             23 	(obj:0)
$_18_z                                             25 	(obj:0)
$_23_y                                             23 	(obj:0)
$_23_z                                             24 	(obj:0)
$_54_y                                             23 	(obj:0)
$_54_z                                             19 	(obj:0)
$_76_y                                             24 	(obj:0)
$_76_z                                             19 	(obj:0)
$_48_y                                             22 	(obj:0)
$_48_z                                             20 	(obj:0)
$_16_y                                             24 	(obj:0)
$_16_z                                             24 	(obj:0)
$_19_y                                             24 	(obj:0)
$_19_z                                             25 	(obj:0)
$_55_y                                             25 	(obj:0)
$_55_z                                             19 	(obj:0)
$_15_y                                             25 	(obj:0)
$_15_z                                             25 	(obj:0)
$_30_y                                             25 	(obj:0)
$_30_z                                             22 	(obj:0)
$_36_y                                             24 	(obj:0)
$_36_z                                             23 	(obj:0)
$_3_y                                              25 	(obj:0)
$_3_z                                              24 	(obj:0)
$_28_y                                             25 	(obj:0)
$_28_z                                             23 	(obj:0)
$_32_y                                             23 	(obj:0)
$_32_z                                             20 	(obj:0)
$_51_y                                             24 	(obj:0)
$_51_z                                             20 	(obj:0)
$_75_y                                             25 	(obj:0)
$_75_z                                             20 	(obj:0)
